Route 1: 14 44 38 43 91 100
Route 2: 65 71 78 34 35 77
Route 3: 36 47 19 8 46 17
Route 4: 92 95 61 86 97 93
Route 5: 42 15 41 55 25
Route 6: 39 23 67 68 24
Route 7: 45 64 49
Route 8: 72 2 87 57 74
Route 9: 75 73 22 56 4
Route 10: 59 5 16 84 13 58
Route 11: 83 82 7 10 48
Route 12: 63 62 11 90 20 32
Route 13: 33 29 79 3 54 80
Route 14: 98 99 85 60
Route 15: 30 51 9 66 70
Route 16: 28 12 76 81 26 1
Route 17: 69 88 50
Route 18: 21 40 94 37
Route 19: 52 18 6 96 89
Route 20: 27 31 53
Vehicles: 20
Distance: 1900.31
